(set-info :source |printed by MathSAT|)
(declare-fun D_11 () Int)
(declare-fun .y.65 () Int)
(declare-fun C_11 () Int)
(declare-fun .y.66 () Int)
(declare-fun A_11 () Int)
(declare-fun .y.67 () Int)
(declare-fun G_11 () (Array Int Int))
(declare-fun .y.68 () (Array Int Int))
(declare-fun E_11 () Int)
(declare-fun .y.69 () Int)
(declare-fun B_11 () Int)
(declare-fun .y.70 () Int)
(declare-fun F_11 () Int)
(declare-fun .y.71 () Int)
(declare-fun H_11 () (Array Int Int))
(declare-fun .y.72 () (Array Int Int))
(declare-fun .loc.64 () Bool)
(declare-fun .loc.73 () Bool)
(declare-fun F_0 () Int)
(declare-fun G_0 () (Array Int Int))
(declare-fun H_0 () Int)
(declare-fun E_0 () Int)
(define-fun .def_8 () Int (! D_11 :next |.y.65|))
(define-fun .def_10 () Int (! C_11 :next |.y.66|))
(define-fun .def_12 () Int (! A_11 :next |.y.67|))
(define-fun .def_14 () (Array Int Int) (! G_11 :next |.y.68|))
(define-fun .def_16 () Int (! E_11 :next |.y.69|))
(define-fun .def_18 () Int (! B_11 :next |.y.70|))
(define-fun .def_20 () Int (! F_11 :next |.y.71|))
(define-fun .def_22 () (Array Int Int) (! H_11 :next |.y.72|))
(define-fun .def_24 () Bool (! .loc.64 :next |.loc.73|))
(define-fun .def_172 () Int (! F_0 :next |.xiv.1|))
(define-fun .def_173 () (Array Int Int) (! G_0 :next |.xiv.2|))
(define-fun .def_175 () Int (! H_0 :next |.xiv.3|))
(define-fun .def_178 () Int (! E_0 :next |.xiv.4|))
(define-fun .def_215 () Int (select .def_14 .def_20))
(define-fun .def_212 () Int (select .def_14 .def_16))
(define-fun .def_216 () Bool (= .def_212 .def_215))
(define-fun .def_170 () Bool (! (not .def_24) :invar-property 0))
(define-fun .def_217 () Bool (and .def_170 .def_216))
(define-fun .def_213 () Bool (= .def_212 0))
(define-fun .def_214 () Bool (not .def_213))
(define-fun .def_218 () Bool (and .def_214 .def_217))
(define-fun .def_210 () Bool (= .def_16 .def_18))
(define-fun .def_211 () Bool (not .def_210))
(define-fun .def_219 () Bool (and .def_211 .def_218))
(define-fun .def_36 () Int (* (- 1) .def_18))
(define-fun .def_37 () Int (+ .def_16 .def_36))
(define-fun .def_208 () Int (+ .def_12 .def_37))
(define-fun .def_209 () Bool (= .def_208 0))
(define-fun .def_220 () Bool (and .def_209 .def_219))
(define-fun .def_34 () Int (* (- 1) .def_16))
(define-fun .def_206 () Int (+ .def_10 .def_34))
(define-fun .def_207 () Bool (= .def_206 1))
(define-fun .def_221 () Bool (and .def_207 .def_220))
(define-fun .def_203 () Int (* (- 1) .def_20))
(define-fun .def_204 () Int (+ .def_8 .def_203))
(define-fun .def_205 () Bool (= .def_204 1))
(define-fun .def_222 () Bool (and .def_205 .def_221))
(define-fun .def_117 () Bool (= .def_14 .def_22))
(define-fun .def_223 () Bool (and .def_117 .def_222))
(define-fun .def_201 () Bool (= .def_12 0))
(define-fun .def_202 () Bool (not .def_201))
(define-fun .def_224 () Bool (and .def_202 .def_223))
(define-fun .def_199 () Int (select .def_22 .def_20))
(define-fun .def_196 () Int (select .def_22 .def_16))
(define-fun .def_200 () Bool (= .def_196 .def_199))
(define-fun .def_225 () Bool (and .def_200 .def_224))
(define-fun .def_197 () Bool (= .def_196 0))
(define-fun .def_198 () Bool (not .def_197))
(define-fun .def_226 () Bool (and .def_198 .def_225))
(define-fun .def_176 () Int (select .def_173 .def_175))
(define-fun .def_188 () Bool (= .def_176 0))
(define-fun .def_190 () Bool (not .def_188))
(define-fun .def_174 () Int (select .def_173 .def_172))
(define-fun .def_177 () Bool (= .def_174 .def_176))
(define-fun .def_184 () Bool (not .def_177))
(define-fun .def_189 () Bool (or .def_184 .def_188))
(define-fun .def_191 () Bool (and .def_189 .def_190))
(define-fun .def_183 () Bool (= .def_174 0))
(define-fun .def_186 () Bool (not .def_183))
(define-fun .def_187 () Bool (and .def_184 .def_186))
(define-fun .def_192 () Bool (or .def_187 .def_191))
(define-fun .def_185 () Bool (and .def_183 .def_184))
(define-fun .def_193 () Bool (or .def_185 .def_192))
(define-fun .def_194 () Bool (or .def_185 .def_193))
(define-fun .def_179 () Bool (= .def_178 0))
(define-fun .def_180 () Bool (not .def_179))
(define-fun .def_181 () Bool (and .def_177 .def_180))
(define-fun .def_182 () Bool (and .def_24 .def_181))
(define-fun .def_195 () Bool (and .def_182 .def_194))
(define-fun .def_227 () Bool (! (or .def_195 .def_226) :init true))
(define-fun .def_118 () Bool (not .def_117))
(define-fun .def_70 () Int (select .def_14 .def_8))
(define-fun .def_66 () Int (select .def_14 .def_10))
(define-fun .def_71 () Bool (= .def_66 .def_70))
(define-fun .def_72 () Bool (not .def_71))
(define-fun .def_137 () Bool (or .def_72 .def_118))
(define-fun .def_38 () Bool (= .def_37 (- 1)))
(define-fun .def_156 () Bool (and .def_38 .def_137))
(define-fun .def_145 () Int (* (- 1) .def_66))
(define-fun .def_146 () Int (+ .def_145 .def_70))
(define-fun .def_30 () Int (+ .def_20 1))
(define-fun .def_31 () Int (select .def_22 .def_30))
(define-fun .def_147 () Int (* (- 1) .def_31))
(define-fun .def_148 () Int (+ .def_147 .def_146))
(define-fun .def_28 () Int (+ .def_16 1))
(define-fun .def_29 () Int (select .def_22 .def_28))
(define-fun .def_149 () Int (+ .def_29 .def_148))
(define-fun .def_150 () Bool (= .def_149 0))
(define-fun .def_151 () Bool (not .def_150))
(define-fun .def_152 () Bool (or .def_118 .def_151))
(define-fun .def_32 () Bool (= .def_29 .def_31))
(define-fun .def_99 () Bool (not .def_32))
(define-fun .def_153 () Bool (and .def_99 .def_152))
(define-fun .def_138 () Bool (and .def_32 .def_137))
(define-fun .def_49 () Bool (= .def_29 0))
(define-fun .def_139 () Bool (and .def_49 .def_138))
(define-fun .def_154 () Bool (or .def_139 .def_153))
(define-fun .def_39 () Bool (not .def_38))
(define-fun .def_155 () Bool (and .def_39 .def_154))
(define-fun .def_157 () Bool (or .def_155 .def_156))
(define-fun .def_158 () Bool (and .def_72 .def_157))
(define-fun .def_123 () Bool (and .def_39 .def_99))
(define-fun .def_134 () Bool (and .def_71 .def_123))
(define-fun .def_125 () Bool (or .def_99 .def_118))
(define-fun .def_135 () Bool (and .def_125 .def_134))
(define-fun .def_67 () Bool (= .def_66 0))
(define-fun .def_136 () Bool (and .def_67 .def_135))
(define-fun .def_159 () Bool (or .def_136 .def_158))
(define-fun .def_40 () Bool (and .def_32 .def_39))
(define-fun .def_130 () Bool (and .def_40 .def_118))
(define-fun .def_131 () Bool (and .def_71 .def_130))
(define-fun .def_132 () Bool (and .def_49 .def_131))
(define-fun .def_133 () Bool (and .def_67 .def_132))
(define-fun .def_160 () Bool (or .def_133 .def_159))
(define-fun .def_127 () Bool (and .def_38 .def_118))
(define-fun .def_128 () Bool (and .def_71 .def_127))
(define-fun .def_129 () Bool (and .def_67 .def_128))
(define-fun .def_161 () Bool (or .def_129 .def_160))
(define-fun .def_68 () Bool (= .def_12 1))
(define-fun .def_75 () Bool (not .def_68))
(define-fun .def_162 () Bool (and .def_75 .def_161))
(define-fun .def_124 () Bool (and .def_68 .def_123))
(define-fun .def_126 () Bool (and .def_124 .def_125))
(define-fun .def_163 () Bool (or .def_126 .def_162))
(define-fun .def_120 () Bool (and .def_40 .def_68))
(define-fun .def_121 () Bool (and .def_118 .def_120))
(define-fun .def_122 () Bool (and .def_49 .def_121))
(define-fun .def_164 () Bool (or .def_122 .def_163))
(define-fun .def_116 () Bool (and .def_38 .def_68))
(define-fun .def_119 () Bool (and .def_116 .def_118))
(define-fun .def_165 () Bool (or .def_119 .def_164))
(define-fun .def_166 () Bool (and .loc.73 .def_165))
(define-fun .def_103 () Bool (and .def_40 .def_75))
(define-fun .def_104 () Bool (and .def_71 .def_103))
(define-fun .def_26 () Bool (not .loc.73))
(define-fun .def_105 () Bool (and .def_26 .def_104))
(define-fun .def_42 () Bool (= .def_22 .y.72))
(define-fun .def_106 () Bool (and .def_42 .def_105))
(define-fun .def_44 () Bool (= .def_18 .y.70))
(define-fun .def_107 () Bool (and .def_44 .def_106))
(define-fun .def_46 () Bool (= .def_14 .y.68))
(define-fun .def_108 () Bool (and .def_46 .def_107))
(define-fun .def_50 () Bool (not .def_49))
(define-fun .def_109 () Bool (and .def_50 .def_108))
(define-fun .def_52 () Int (* (- 1) .y.71))
(define-fun .def_53 () Int (+ .def_20 .def_52))
(define-fun .def_54 () Bool (= .def_53 (- 1)))
(define-fun .def_110 () Bool (and .def_54 .def_109))
(define-fun .def_56 () Int (* (- 1) .y.69))
(define-fun .def_57 () Int (+ .def_16 .def_56))
(define-fun .def_58 () Bool (= .def_57 (- 1)))
(define-fun .def_111 () Bool (and .def_58 .def_110))
(define-fun .def_81 () Int (* (- 1) .y.65))
(define-fun .def_82 () Int (+ .def_8 .def_81))
(define-fun .def_83 () Bool (= .def_82 (- 1)))
(define-fun .def_112 () Bool (and .def_83 .def_111))
(define-fun .def_85 () Int (* (- 1) .y.66))
(define-fun .def_86 () Int (+ .def_10 .def_85))
(define-fun .def_87 () Bool (= .def_86 (- 1)))
(define-fun .def_113 () Bool (and .def_87 .def_112))
(define-fun .def_89 () Int (* (- 1) .y.67))
(define-fun .def_90 () Int (+ .def_12 .def_89))
(define-fun .def_91 () Bool (= .def_90 1))
(define-fun .def_114 () Bool (and .def_91 .def_113))
(define-fun .def_93 () Bool (not .def_67))
(define-fun .def_115 () Bool (and .def_93 .def_114))
(define-fun .def_167 () Bool (or .def_115 .def_166))
(define-fun .def_100 () Bool (or .def_38 .def_99))
(define-fun .def_101 () Bool (or .def_49 .def_100))
(define-fun .def_97 () Bool (= .def_16 .y.69))
(define-fun .def_95 () Bool (= .def_20 .y.71))
(define-fun .def_76 () Bool (and .def_71 .def_75))
(define-fun .def_77 () Bool (and .def_26 .def_76))
(define-fun .def_78 () Bool (and .def_42 .def_77))
(define-fun .def_79 () Bool (and .def_44 .def_78))
(define-fun .def_80 () Bool (and .def_46 .def_79))
(define-fun .def_84 () Bool (and .def_80 .def_83))
(define-fun .def_88 () Bool (and .def_84 .def_87))
(define-fun .def_92 () Bool (and .def_88 .def_91))
(define-fun .def_94 () Bool (and .def_92 .def_93))
(define-fun .def_96 () Bool (and .def_94 .def_95))
(define-fun .def_98 () Bool (and .def_96 .def_97))
(define-fun .def_102 () Bool (and .def_98 .def_101))
(define-fun .def_168 () Bool (or .def_102 .def_167))
(define-fun .def_69 () Bool (or .def_67 .def_68))
(define-fun .def_73 () Bool (or .def_69 .def_72))
(define-fun .def_64 () Bool (= .def_8 .y.65))
(define-fun .def_62 () Bool (= .def_10 .y.66))
(define-fun .def_60 () Bool (= .def_12 .y.67))
(define-fun .def_41 () Bool (and .def_26 .def_40))
(define-fun .def_43 () Bool (and .def_41 .def_42))
(define-fun .def_45 () Bool (and .def_43 .def_44))
(define-fun .def_47 () Bool (and .def_45 .def_46))
(define-fun .def_51 () Bool (and .def_47 .def_50))
(define-fun .def_55 () Bool (and .def_51 .def_54))
(define-fun .def_59 () Bool (and .def_55 .def_58))
(define-fun .def_61 () Bool (and .def_59 .def_60))
(define-fun .def_63 () Bool (and .def_61 .def_62))
(define-fun .def_65 () Bool (and .def_63 .def_64))
(define-fun .def_74 () Bool (and .def_65 .def_73))
(define-fun .def_169 () Bool (or .def_74 .def_168))
(define-fun .def_171 () Bool (! (and .def_169 .def_170) :trans true))
(assert true)
